100
1000
200
200
199
199
199
199
199
198
197
197
197
197
196
196
196
196
193
193
192
192
192
191
191
190
190
189
189
189
188
187
186
186
185
185
184
184
184
183
182
182
182
180
180
179
179
179
179
178
177
177
177
176
175
175
173
172
171
171
170
170
169
169
169
169
169
169
169
168
167
166
166
165
165
164
163
162
162
162
162
160
160
159
159
159
157
156
156
156
156
156
155
153
153
151
151
150
150
150
150
150
